; Top-down merge sort, using division by two on natural numbers
(declare-datatypes (a)
  ((list (nil) (cons (head a) (tail (list a))))))
(define-fun-rec
  (par (a)
    (take
       ((x Int) (y (list a))) (list a)
       (ite
         (<= x 0) (_ nil a)
         (match y
           (case nil (_ nil a))
           (case (cons z xs) (cons z (take (- x 1) xs))))))))
(define-fun-rec
  nmsorttd-half1
    ((x Int)) Int
    (ite (= x 1) 0 (ite (= x 0) 0 (+ 1 (nmsorttd-half1 (- x 2))))))
(define-fun-rec
  lmerge
    ((x (list Int)) (y (list Int))) (list Int)
    (match x
      (case nil y)
      (case (cons z x2)
        (match y
          (case nil x)
          (case (cons x3 x4)
            (ite (<= z x3) (cons z (lmerge x2 y)) (cons x3 (lmerge x x4))))))))
(define-fun-rec
  (par (a)
    (length
       ((x (list a))) Int
       (match x
         (case nil 0)
         (case (cons y l) (+ 1 (length l)))))))
(define-fun-rec
  insert
    ((x Int) (y (list Int))) (list Int)
    (match y
      (case nil (cons x (_ nil Int)))
      (case (cons z xs)
        (ite (<= x z) (cons x y) (cons z (insert x xs))))))
(define-fun-rec
  isort
    ((x (list Int))) (list Int)
    (match x
      (case nil (_ nil Int))
      (case (cons y xs) (insert y (isort xs)))))
(define-fun-rec
  (par (a)
    (drop
       ((x Int) (y (list a))) (list a)
       (ite
         (<= x 0) y
         (match y
           (case nil (_ nil a))
           (case (cons z xs1) (drop (- x 1) xs1)))))))
(define-fun-rec
  nmsorttd
    ((x (list Int))) (list Int)
    (match x
      (case nil (_ nil Int))
      (case (cons y z)
        (match z
          (case nil (cons y (_ nil Int)))
          (case (cons x2 x3)
            (let ((k (nmsorttd-half1 (length x))))
              (lmerge (nmsorttd (take k x)) (nmsorttd (drop k x)))))))))
(prove (forall ((xs (list Int))) (= (nmsorttd xs) (isort xs))))
